objective value:                                  -13
t_n_0                                               1 	(obj:-1)
t_n_76                                              1 	(obj:-1)
t_n_95                                              1 	(obj:-1)
t_n_157                                             1 	(obj:-1)
t_n_175                                             1 	(obj:-1)
t_n_270                                             1 	(obj:-1)
t_n_343                                             1 	(obj:-1)
t_n_445                                             1 	(obj:-1)
t_n_508                                             1 	(obj:-1)
t_n_760                                             1 	(obj:-1)
t_n_791                                             1 	(obj:-1)
t_n_904                                             1 	(obj:-1)
t_n_976                                             1 	(obj:-1)
